============================[ Problem Statistics ]=============================|                                                                             ||  Number of variables:          4242                                         ||  Number of clauses:           10423                                         ||  Parse time:                   0.80 s                                       ||                                                                             |============================[ Search Statistics ]==============================| Conflicts |          ORIGINAL         |          LEARNT          | Progress ||           |    Vars  Clauses Literals |    Limit  Clauses Lit/Cl |          |===============================================================================|       100 |    1591     6628  1292549 |     2430      100     53 | 62.501 % ||       250 |    1591     6628  1292549 |     2673      250     75 | 62.495 % |===============================================================================restarts              : 4conflicts             : 436            (358 /sec)decisions             : 796            (0.00 % random) (654 /sec)propagations          : 13717          (11271 /sec)conflict literals     : 36746          (94.48 % deleted)CPU time              : 1.217 sSATISFIABLE